500
1000
300
300
300
300
299
298
298
297
296
296
295
295
294
294
293
293
291
290
289
289
288
287
287
287
286
286
286
285
284
284
284
284
283
283
282
281
281
280
280
280
280
279
279
279
278
278
278
278
278
278
276
276
276
276
276
276
276
275
275
275
275
274
274
273
272
272
272
271
271
270
270
269
269
269
269
268
268
266
266
266
265
265
265
265
265
264
263
263
263
263
263
263
262
262
262
262
261
261
261
261
261
260
260
260
259
259
259
258
258
258
258
257
257
256
255
255
254
253
253
253
252
252
251
251
251
251
250
250
250
249
249
249
248
248
248
247
247
247
247
247
246
246
246
246
246
246
245
245
245
245
244
244
244
244
244
244
243
243
243
243
243
243
242
242
242
242
240
239
238
237
237
237
237
237
237
237
236
236
235
234
234
233
233
232
232
232
231
231
231
231
231
230
229
229
229
229
229
228
228
227
227
227
227
227
226
226
224
224
223
222
222
222
222
222
221
221
221
220
220
219
219
219
219
219
218
218
217
217
217
217
216
216
216
216
216
216
215
215
215
215
214
214
214
214
213
212
212
211
210
210
209
209
208
208
208
208
208
207
207
207
207
206
206
206
206
205
205
204
204
203
203
202
202
202
202
202
201
201
201
200
199
198
198
197
195
192
192
192
191
190
190
190
190
189
189
189
189
188
188
187
187
185
185
185
185
184
184
183
183
182
182
182
181
181
181
181
180
180
180
180
179
179
177
177
176
176
175
175
175
174
174
174
174
174
174
174
172
172
172
172
171
169
168
167
167
166
166
166
165
164
164
164
164
163
163
163
163
162
162
162
162
161
161
160
159
159
159
158
157
155
155
154
154
153
153
153
153
153
152
152
151
151
150
149
149
149
148
147
147
147
147
147
146
146
145
145
144
144
144
143
142
142
142
141
141
140
140
140
139
139
139
138
138
137
137
137
137
136
136
136
136
135
135
134
134
134
134
134
133
133
133
133
132
132
130
130
129
128
128
127
127
127
126
126
126
126
126
126
124
124
123
123
122
122
122
121
121
121
119
119
119
118
117
117
117
116
116
116
114
114
114
114
113
113
112
110
110
110
110
110
110
109
109
108
108
108
107
107
106
106
105
104
104
104
104
103
103
102
102
102
